&CONTROL
    calculation      = 'relax'
    prefix           = 'ice_mol'
    outdir           = './out0/'
    pseudo_dir       = './pseudo/'
    tprnfor          = .true.
    tstress          = .true.
    verbosity        = 'low'
    lfcp             = .false.
    forc_conv_thr    = 1.d-3
/
&SYSTEM
    ibrav            = 0
    nat              = 921
    ntyp             = 5
    ecutwfc          = 50
    ecutrho          = 400
    input_dft        = 'vdw-df-ob86'
    occupations      = 'smearing'
    smearing         = 'gaussian'
    degauss          = 0.0147
    assume_isolated  = 'esm'
    esm_w            = 0.0
    esm_bc           = 'bc3'
/
&ELECTRONS
    electron_maxstep = 200
    diagonalization  = 'rmm-davidson'     ! 'david', 'cg', 'paro', 'rmm-xxx'
    diago_david_ndim = 4
    diago_rmm_ndim   = 16
    diago_rmm_conv   = .true.
    startingwfc      = 'atomic'       ! 'atomic', 'atomic+random', or 'file'
    mixing_beta      = 0.1
    conv_thr         = 1.d-5
    tqr              = .true.

/
&IONS
    ion_dynamics     = 'bfgs'
/
! &FCP
!     fcp_mu           = -3.7
! /
ATOMIC_SPECIES
H 1.008 H_ONCV_PBE-1.0.oncvpsp.upf
C 12.011 C.pbe-n-kjpaw_psl.1.0.0.UPF
N 14.007 N.oncvpsp.upf
O 15.999 O.pbe-n-kjpaw_psl.0.1.UPF
Cu 63.546 Cu.paw.z_11.ld1.psl.v1.0.0-low.upf

K_POINTS gamma

CELL_PARAMETERS angstrom
26.08101257030000 0.00000000000000 0.00000000000000
0.00000000000000 22.51015304170000 0.00000000000000
0.00000000000000 0.00000000000000 30.00000000000000

ATOMIC_POSITIONS angstrom
H 2.2375494653 18.4862961692 9.4563000000   0 0 0
H 2.2406791868 20.0514271102 7.8948000000   0 0 0
H 2.2414616172 20.9928017104 6.5712000000   0 0 0
H 2.2099270858 19.8709126937 0.7403362100  
H 2.2459045438 20.7820553142 -0.5972086600  
H 5.7699618078 21.4772202038 7.9047000000   0 0 0
H 6.5862975013 21.0270171430 6.5736000000   0 0 0
H 5.6310907048 21.5670401760 0.7304918750  
H 6.4120603862 21.2327816191 -0.6299624350  
H 1.4199097212 18.0174096813 8.1351000000   0 0 0
H 4.3433745076 22.2316667340 2.3522425150  
H 1.3613449144 17.9806966999 0.9881537350  
H 2.2074620441 18.4652591931 2.3117784050  
H 6.6032501594 19.4598602882 8.1324000000   0 0 0
H 6.5964690962 18.5288403584 9.4638000000   0 0 0
H 6.5366008856 19.4759019912 0.9526339450  
H 6.5794772748 18.5686084335 2.2845349300  
H 0.0613497764 16.3003352073 7.9203000000   0 0 0
H 25.3359374381 17.7117218030 7.9236000000   0 0 0
H 22.6599500438 2.7152531123 4.5997946150  
H 24.8424846802 3.0330761060 11.4669000000   0 0 0
H 24.0158035932 4.4441739843 4.3749387750  
H 24.8385047986 3.0485326509 4.3917260350  
H 18.3219707275 2.7075792931 11.6832000000   0 0 0
H 17.5061566543 2.2483721710 13.0137000000   0 0 0
H 18.3177725243 2.7164444329 4.5844508700  
H 17.5163324848 2.2487968138 5.9228518900  
H 22.6675890420 2.7215355879 11.6802000000   0 0 0
H 21.8439506650 2.2639041766 13.0032000000   0 0 0
H 0.0701240446 16.3326011278 0.7558715500  
H 21.8369010717 2.2463236188 5.9142279800  
H 0.8896827357 21.7570214061 8.1264000000   0 0 0
H 25.3437617418 21.7766052393 8.1291000000   0 0 0
H 0.8321620301 21.6804077581 0.9576867600  
H 25.3129074006 21.7913154442 0.9683661650  
H 3.5974134607 21.7714279041 8.1408000000   0 0 0
H 4.3991437871 22.2472925394 9.4719000000   0 0 0
H 3.5463806339 21.7171682404 1.0275934100  
H 6.5673578951 11.8810908731 1.0609344750  
H 6.6178555265 13.5151539714 6.5631000000   0 0 0
H 7.5299786966 13.9661588664 0.8233860550  
H 6.9178627330 13.3135895162 -0.5096021950  
H 2.2542413133 11.9646546299 8.1564000000   0 0 0
H 2.2365062248 11.0244055374 9.4860000000   0 0 0
H 2.2876265117 11.9034646641 0.9946744200  
H 2.2660895001 10.9947290610 2.3228072900  
H 6.5779515773 11.9495728274 8.1060000000   0 0 0
H 5.7610942636 10.5447141761 8.1198000000   0 0 0
H 7.4234980048 13.9705343675 7.9002000000   0 0 0
H 5.7173710656 10.4978054505 0.9733064100  
H 0.8875962547 10.2435283284 7.9404000000   0 0 0
H 25.3442833621 10.2363250794 7.9269000000   0 0 0
H 0.8506851773 10.1451089803 0.7428054000  
H 25.3328930119 10.1490916634 0.7357376150  
H 4.4077505213 8.8089562750 7.9377000000   0 0 0
H 3.5890675367 10.2153906371 7.9473000000   0 0 0
H 4.4775974447 8.8228521279 0.6361041000  
H 0.1192748734 14.6939980805 2.3826076950  
H 25.3507820384 17.7114583847 0.7228567600  
H 5.2394740121 17.7612441397 7.9200000000   0 0 0
H 3.6104539670 17.7461623372 7.9152000000   0 0 0
H 5.1984728582 17.6774203028 0.6938975150  
H 3.6044742559 17.6355583738 0.7072376200  
H 0.9048097230 14.2809493779 8.1429000000   0 0 0
H 0.0910821308 14.7430828199 9.4719000000   0 0 0
H 0.9485952780 14.2611983123 1.0508372750  
H 24.0180638729 4.4338829298 11.4501000000   0 0 0
H 4.4416558376 15.7152963297 8.1177000000   0 0 0
H 5.2538185691 14.3081866631 8.0961000000   0 0 0
H 4.4596914003 15.7253826633 0.9011871650  
H 5.2858991900 14.3102234898 0.8948093400  
H 3.0820526523 13.9923692159 7.8894000000   0 0 0
H 2.2631088576 13.5077256209 6.5760000000   0 0 0
H 3.2096894583 14.0294891831 0.6878319500  
H 2.3535546769 13.6125454609 -0.6067373150  
H 22.6628666574 14.2764015909 4.2713659700  
H 21.8092629183 17.2180741468 12.9966000000   0 0 0
H 21.8189685446 16.3064871331 4.5683507550  
H 21.8057707881 17.2385104394 5.9039285900  
H 17.4696432367 15.7024655425 11.4597000000   0 0 0
H 18.2898910821 14.2969315866 11.4591000000   0 0 0
H 17.4905531696 15.7208034904 4.4139988850  
H 18.3277476770 14.3141502284 4.4136628550  
H 22.6370742573 14.2627161540 11.4177000000   0 0 0
H 21.8238682853 14.7379054847 10.0935000000   0 0 0
H 21.8126534499 16.2785003588 11.6667000000   0 0 0
H 21.8554139247 14.7508507991 2.9475283200  
H 20.4567016064 13.9450978945 11.6373000000   0 0 0
H 19.6294118877 12.5496935075 11.6655000000   0 0 0
H 20.4902028131 13.9512865051 4.5393707150  
H 19.6753653382 12.5493728256 4.5862081250  
H 24.8106658449 13.9615303063 11.6502000000   0 0 0
H 23.9846801768 12.5577971626 11.6454000000   0 0 0
H 24.8281728524 13.9481871587 4.5582159550  
H 18.8179705597 18.0394775143 4.3331951250  
H 18.8078601117 21.4621284608 4.5641189700  
H 24.7976253386 21.4909513972 11.6577000000   0 0 0
H 23.1714742049 21.4925271079 11.6520000000   0 0 0
H 24.7872280856 21.5086298899 4.5596868250  
H 23.1659671730 21.4989175107 4.5628643550  
H 20.4535718849 17.9989513558 11.4486000000   0 0 0
H 18.8274207511 18.0257384379 11.4540000000   0 0 0
H 20.4348770881 18.0157545390 4.3148764050  
H 23.9964588081 12.5540183427 4.5335894800  
H 23.9612072655 19.4490554148 11.4561000000   0 0 0
H 23.1553039771 18.0340671946 11.4555000000   0 0 0
H 23.9647484984 19.4574216688 4.3398211700  
H 23.1541340663 18.0549987488 4.3366024150  
H 16.6316603029 17.7389590882 11.6679000000   0 0 0
H 17.4336514394 17.2671462804 12.9960000000   0 0 0
H 16.6236751575 17.7540692918 4.5813538050  
H 17.4276696627 17.2901057294 5.9187748050  
H 18.8159628929 6.4589481631 4.5819591400  
H 17.4718086728 8.1881763235 4.3413101300  
H 17.4967649443 7.2493054218 3.0126032700  
H 20.9642381110 6.7567056222 11.4393000000   0 0 0
H 21.7925710703 7.2235661963 10.1214000000   0 0 0
H 20.9672310689 6.7538866622 4.3175454450  
H 21.7716692878 7.2029801233 2.9816236050  
H 19.6111551789 5.0504360216 11.6628000000   0 0 0
H 18.7956019158 6.4595716020 11.6583000000   0 0 0
H 19.6290288359 5.0532083248 4.5790371850  
H 17.4461703254 7.2735387360 10.1274000000   0 0 0
H 24.7832807817 6.4870339888 11.6661000000   0 0 0
H 23.1563472176 6.4582209929 11.6649000000   0 0 0
H 24.7851628267 6.5140300124 4.5674345850  
H 23.1637340123 6.4823984099 4.5622935500  
H 20.4885204417 3.0342016137 11.4414000000   0 0 0
H 19.6682725964 3.4895820097 10.1148000000   0 0 0
H 20.4782245447 3.0372787989 4.3169860450  
H 19.6713073622 3.5213343116 2.9890079650  
H 16.6011455181 10.2252951044 11.6760000000   0 0 0
H 20.4191449483 10.4974428547 11.4705000000   0 0 0
H 18.7903857133 10.5197279062 11.4666000000   0 0 0
H 20.4607269942 10.4943886051 4.4061594850  
H 18.8346736173 10.5191810175 4.3966467150  
H 23.1289621544 10.5195028046 11.4270000000   0 0 0
H 23.9411248858 10.9960427445 10.1013000000   0 0 0
H 23.1606782514 10.5153398602 4.3134516350  
H 23.9340596699 10.9877529462 2.9637734450  
H 3.6534841924 10.1754302104 0.6638608600  
H 17.4219149837 9.7753171451 13.0095000000   0 0 0
H 16.6405673651 10.2267654788 4.5768092150  
H 17.4352480407 9.7761613028 5.9229461250  
H 21.7837035260 8.7830695990 11.6727000000   0 0 0
H 21.7954399816 9.7172409502 12.9990000000   0 0 0
H 21.8110583639 8.7771592229 4.5859735450  
H 21.8209311747 9.7037387707 5.9269004100  
H 17.4401716925 8.2045586658 11.4576000000   0 0 0
H 3.5819085648 6.7606241446 4.3167512750  
H 4.4082721415 9.7172409502 12.9990000000   0 0 0
H 4.4026929461 8.7906900984 4.5931372800  
H 4.3980125050 9.7124478093 5.9354515500  
H 0.0530038524 8.2045586658 11.4576000000   0 0 0
H 0.0587416752 7.2735387360 10.1274000000   0 0 0
H 0.0748321733 8.2214192679 4.3239377850  
H 0.0671986835 7.2854544563 2.9956633900  
H 3.5770702709 6.7567056222 11.4393000000   0 0 0
H 4.4054032301 7.2235661963 10.1214000000   0 0 0
H 4.3965356859 8.7830695990 11.6727000000   0 0 0
H 4.4045010775 7.2090257224 2.9919400050  
H 2.2237265286 5.0504360216 11.6628000000   0 0 0
H 1.4081732656 6.4595716020 11.6583000000   0 0 0
H 2.2337177029 5.0591248394 4.5736280000  
H 1.4236527951 6.4665583709 4.5662541500  
H 7.3958521315 6.4870339888 11.6661000000   0 0 0
H 5.7689185673 6.4582209929 11.6649000000   0 0 0
H 7.4017891480 6.5129507113 4.5646404550  
H 1.4354769325 10.5397389213 4.3500858550  
H 3.1007996711 13.9557863500 4.5325671250  
H 2.2833139798 12.5573794642 4.5633012700  
H 7.4232371947 13.9615303063 11.6502000000   0 0 0
H 6.5975123367 12.5577971626 11.6454000000   0 0 0
H 7.4283203005 13.9531025882 4.5801009850  
H 6.6036586820 12.5488243027 4.5595537000  
H 3.0317162981 10.4974428547 11.4705000000   0 0 0
H 1.4029570631 10.5197279062 11.4666000000   0 0 0
H 3.0549566841 10.5108171248 4.3607835050  
H 5.7808680084 6.4859848445 4.5694173100  
H 5.7417943142 10.5195028046 11.4270000000   0 0 0
H 6.5536962356 10.9960427445 10.1013000000   0 0 0
H 5.7636416169 10.5112340466 4.3802186900  
H 6.5346956937 10.9568599672 3.0280439250  
H 25.2947294382 10.2252951044 11.6760000000   0 0 0
H 0.0347471436 9.7753171451 13.0095000000   0 0 0
H 25.3228195729 10.2371576759 4.5740899350  
H 0.0502085573 9.7846362449 5.9152262900  
H 5.6314995586 10.0670996217 -2.3846860350  
H 15.6240247795 5.8934501513 -2.3154644550  
H 10.6368288731 16.6141917388 -2.5639769500  
H 15.6844841762 16.5900931590 -2.5353417500  
H 7.8181526686 13.7991368511 -2.7114329950  
H 7.7777946750 8.7630684051 -2.4557727250  
H 20.6419938916 12.4766346178 -2.5642320200  
H 20.6371902698 10.0208514386 -2.3183833350  
H 11.9349559456 18.7553621647 -2.5074906700  
H 14.4085489653 18.7432617441 -2.4830664600  
H 10.5999728736 5.9022290142 -2.7491620350  
H 5.6454920871 12.5298865402 -2.5707107600  
H 14.3259490371 3.7463155005 -2.2547870300  
H 11.8695734786 3.7468182783 -2.4745095700  
H 9.5835274659 21.7570214061 8.1264000000   0 0 0
H 9.5986544531 14.2809493779 8.1429000000   0 0 0
H 8.7549336965 16.3003352073 7.9203000000   0 0 0
H 18.4792648371 8.7303919084 -2.3462775950  
H 9.5811801747 10.2435283284 7.9404000000   0 0 0
H 0.9348028874 2.7075792931 11.6832000000   0 0 0
H 3.1010917915 3.0342016137 11.4414000000   0 0 0
H 2.2811047563 3.4895820097 10.1148000000   0 0 0
H 3.1015338986 3.0452587427 4.3288449100  
H 2.3043102355 3.5251375190 2.9964838850  
H 6.6306352226 4.4338829298 11.4501000000   0 0 0
H 7.4550560300 3.0330761060 11.4669000000   0 0 0
H 6.6330707015 4.4467191375 4.3672047800  
H 7.4600761711 3.0540576824 4.3851514850  
H 2.2419832374 12.5496935075 11.6655000000   0 0 0
H 0.1187280041 2.2483721710 13.0137000000   0 0 0
H 0.9371037465 2.7195497377 4.5900146850  
H 0.1345629787 2.2481027695 5.9269967500  
H 5.2804212019 2.7215355879 11.6802000000   0 0 0
H 4.4565220148 2.2639041766 13.0032000000   0 0 0
H 5.2816881601 2.7224718055 4.5970553900  
H 4.4579892778 2.2532500086 5.9138392600  
H 18.4754017696 13.7602406573 -2.7183400900  
H 0.1111245648 1.3581949195 0.7395471550  
H 2.2810861084 4.4653972139 0.9643121450  
H 3.1470526490 3.0951748832 0.9808575350  
H 7.4378425617 3.0049384147 8.1453000000   0 0 0
H 6.6251582100 3.4767512225 9.4653000000   0 0 0
H 7.5296927705 3.0248828290 1.0166651450  
H 6.6877544606 3.5011214480 2.3510691500  
H 0.9194150900 2.7033023640 7.9377000000   0 0 0
H 0.1090780294 1.2914655652 7.9362000000   0 0 0
H 0.9137758326 2.7342759631 0.7613117900  
H 3.0885729055 3.0477077055 8.1261000000   0 0 0
H 5.2577307209 2.6895711706 7.9287000000   0 0 0
H 4.4254856098 1.2977684081 7.9254000000   0 0 0
H 5.2579228598 2.7131896876 0.7518790150  
H 4.3849455369 1.3853716951 0.7273590800  
H 0.0973415738 0.6899942759 11.4498000000   0 0 0
H 0.0822145865 22.2621492404 10.1208000000   0 0 0
H 0.0940263380 0.7068259998 4.3249976300  
H 0.0730850506 22.2663416303 3.0010842100  
H 1.4206921516 6.4818566536 7.9224000000   0 0 0
H 0.0579592448 8.1942039954 8.1396000000   0 0 0
H 25.3286347545 6.7837178058 8.1342000000   0 0 0
H 0.0315599161 8.2213407638 0.9581364750  
H 25.3401638740 6.7692190230 0.9587990850  
H 5.2407780628 6.7580562314 8.1303000000   0 0 0
H 3.6146269290 6.7762894553 8.1279000000   0 0 0
H 5.2162485601 6.6684843909 0.9388232100  
H 3.6164649232 6.7815105503 0.9306565700  
H 4.4121842934 0.6924703928 11.4654000000   0 0 0
H 2.2265954400 6.0122948611 6.5949000000   0 0 0
H 1.3192161375 6.5701156366 0.6991715700  
H 2.0883737595 6.1593823644 -0.6482557550  
H 6.6048150202 5.0369299298 7.9035000000   0 0 0
H 6.5985555772 5.9888843019 6.5847000000   0 0 0
H 6.6423831044 4.8914825523 0.7493993900  
H 6.5928508538 5.7302691560 -0.6274976850  
H 2.2638912880 4.4507655446 8.1306000000   0 0 0
H 0.0822145865 15.7024655425 11.4597000000   0 0 0
H 5.7681064385 18.0581343996 4.3263632900  
H 25.3252442229 17.7389590882 11.6679000000   0 0 0
H 0.0462227891 17.2671462804 12.9960000000   0 0 0
H 25.3183517572 17.7345569509 4.5762711850  
H 0.0403446140 17.2637738656 5.9078987650  
H 4.4254856098 16.2785003588 11.6667000000   0 0 0
H 4.4218342681 17.2180741468 12.9966000000   0 0 0
H 4.4367589058 16.3029427496 4.5670489050  
H 4.4269342666 17.2333145424 5.9055755150  
H 6.5733691512 19.4635749384 4.3303718500  
H 0.9027232420 14.2969315866 11.4591000000   0 0 0
H 0.0989131113 15.6979293302 4.3529745350  
H 0.9366419535 14.3008896931 4.3629874250  
H 5.2499064172 14.2627161540 11.4177000000   0 0 0
H 4.4364396351 14.7379054847 10.0935000000   0 0 0
H 5.2710885445 14.2715222721 4.2732306600  
H 4.4736332533 14.7451781820 2.9432089800  
H 3.0695337663 13.9450978945 11.6373000000   0 0 0
H 5.7840455546 21.4925271079 11.6520000000   0 0 0
H 3.5937621190 21.7934878541 11.4624000000   0 0 0
H 4.4039438853 0.7005478235 4.3392400350  
H 3.5832874940 21.8061878640 4.3471913100  
H 2.2505899716 20.0500765010 11.6514000000   0 0 0
H 1.4303421263 21.4547100508 11.6532000000   0 0 0
H 2.2373686717 20.0593839900 4.5592039400  
H 1.4225011150 21.4634300609 4.5567060650  
H 7.4104574985 21.4909513972 11.6577000000   0 0 0
H 7.9563330916 21.7766052393 8.1291000000   0 0 0
H 7.3976069454 21.5169171941 4.5553199300  
H 5.7773883083 21.5052451395 4.5607118150  
H 3.0664040448 17.9989513558 11.4486000000   0 0 0
H 1.4399921009 18.0257384379 11.4540000000   0 0 0
H 3.0521400000 18.0117476417 4.3397414200  
H 1.4324588247 18.0295283508 4.3482667500  
H 6.5740394254 19.4490554148 11.4561000000   0 0 0
H 5.7678753268 18.0340671946 11.4555000000   0 0 0
H 10.9441738916 20.0500765010 11.6514000000   0 0 0
H 13.0611259572 1.3742995744 0.6304353650  
H 8.7909254938 0.6899942759 11.4498000000   0 0 0
H 8.7757985066 22.2621492404 10.1208000000   0 0 0
H 8.7860476299 0.7189051730 4.3227374900  
H 8.7643829152 22.2843670225 2.9960914250  
H 13.1057682135 0.6924703928 11.4654000000   0 0 0
H 12.2876068491 21.7934878541 11.4624000000   0 0 0
H 13.1002683278 0.7032558062 4.3358393550  
H 12.2805274895 21.8096617952 4.3382070400  
H 13.9155173063 2.7087416903 0.6248214650  
H 10.1239260463 21.4547100508 11.6532000000   0 0 0
H 10.9256990569 20.0635044060 4.5564118300  
H 10.1138444987 21.4684652850 4.5545388450  
H 16.1040414186 21.4909513972 11.6577000000   0 0 0
H 14.4778902848 21.4925271079 11.6520000000   0 0 0
H 16.0905309872 21.5128008817 4.5663899450  
H 14.4685207306 21.5073359703 4.5602430400  
H 11.7599879648 17.9989513558 11.4486000000   0 0 0
H 15.3187421301 3.4767512225 9.4653000000   0 0 0
H 15.2924003074 5.9888843019 6.5847000000   0 0 0
H 15.3525024829 5.0571612698 0.8090782750  
H 14.5844315211 6.4629215855 0.8361967000  
H 10.9574752081 4.4507655446 8.1306000000   0 0 0
H 11.7821568255 3.0477077055 8.1261000000   0 0 0
H 11.0309313132 4.4527576819 1.0096191350  
H 11.8474156841 3.0549979045 0.9175229550  
H 16.1314264818 3.0049384147 8.1453000000   0 0 0
H 10.1335760210 18.0257384379 11.4540000000   0 0 0
H 16.1331610725 2.9828582011 0.9502733050  
H 15.3084622207 3.4247657641 2.2754015550  
H 9.6129990101 2.7033023640 7.9377000000   0 0 0
H 8.8029227596 1.2914655652 7.9362000000   0 0 0
H 9.6265947263 2.7519185297 0.7350335650  
H 8.8140179693 1.3819391016 0.7131658550  
H 13.9515754511 2.6895711706 7.9287000000   0 0 0
H 13.1190695299 1.2977684081 7.9254000000   0 0 0
H 16.1458470805 13.9649101134 4.5904329350  
H 13.9434903372 14.2627161540 11.4177000000   0 0 0
H 13.1300235552 14.7379054847 10.0935000000   0 0 0
H 13.9743837061 14.2676825262 4.3092310500  
H 13.1682528556 14.6994623257 2.9727817750  
H 10.9355671575 12.5496935075 11.6655000000   0 0 0
H 11.7988076716 13.9537132954 4.5453771550  
H 10.9684443551 12.5643290147 4.5524210150  
H 16.1170819248 13.9615303063 11.6502000000   0 0 0
H 15.2910962567 12.5577971626 11.6454000000   0 0 0
H 9.6183092190 14.3206948821 4.3956865500  
H 15.3186786489 12.5633322111 4.5558531250  
H 11.7253002181 10.4974428547 11.4705000000   0 0 0
H 10.0965409831 10.5197279062 11.4666000000   0 0 0
H 11.7518871319 10.5208066850 4.3293457450  
H 10.1303664837 10.5339150067 4.3167963450  
H 14.4353782343 10.5195028046 11.4270000000   0 0 0
H 15.2475409657 10.9960427445 10.1013000000   0 0 0
H 14.4577256378 10.5422154455 4.3115414300  
H 7.9253250680 17.7519500216 4.5828617850  
H 11.7391871654 18.0139687568 4.3250292200  
H 10.1191507120 18.0378063201 4.3562206050  
H 15.2676233454 19.4490554148 11.4561000000   0 0 0
H 14.4617200570 18.0340671946 11.4555000000   0 0 0
H 15.2664471622 19.4699510271 4.3357253400  
H 14.4632981043 18.0629107863 4.3156592900  
H 7.9380763828 17.7389590882 11.6679000000   0 0 0
H 8.7398067092 17.2671462804 12.9960000000   0 0 0
H 15.2986597504 5.0369299298 7.9035000000   0 0 0
H 8.7277316516 17.2840773821 5.9209309400  
H 13.1190695299 16.2785003588 11.6667000000   0 0 0
H 13.1154181881 17.2180741468 12.9966000000   0 0 0
H 13.1288406587 16.3014038745 4.5633409650  
H 13.1176545593 17.2380177507 5.8935421850  
H 8.7760593167 15.7024655425 11.4597000000   0 0 0
H 9.5963071620 14.2969315866 11.4591000000   0 0 0
H 8.7792676803 15.7213418568 4.4050113600  
H 13.8837782189 17.6643862421 0.8441884300  
H 9.5258199133 21.7014528918 0.9501147500  
H 15.2900530162 18.5288403584 9.4638000000   0 0 0
H 15.2294443396 19.4740063685 0.9371424300  
H 15.2919497761 18.5958835718 2.2935334950  
H 7.9487695979 17.7117218030 7.9236000000   0 0 0
H 8.7563734649 16.3495239773 0.7216897900  
H 7.9726825846 17.7275672737 0.6578601900  
H 13.9333187423 17.7612441397 7.9200000000   0 0 0
H 12.3040378871 17.7461623372 7.9152000000   0 0 0
H 7.9273566824 21.8161249869 0.9588752450  
H 12.2764765058 17.6260332295 0.8531201250  
H 8.7846660508 14.7430828199 9.4719000000   0 0 0
H 9.6125667642 14.3248768071 1.1251414200  
H 8.7715219221 14.7630599864 2.4396688300  
H 13.1355005678 15.7152963297 8.1177000000   0 0 0
H 13.9474024891 14.3081866631 8.0961000000   0 0 0
H 13.1331972623 15.6853744814 1.0163979150  
H 13.9911770041 14.3033018158 0.9172484750  
H 14.4635457279 21.4772202038 7.9047000000   0 0 0
H 15.2968340795 19.4598602882 8.1324000000   0 0 0
H 10.8487410855 18.4841589337 2.3164438100  
H 10.0331993815 17.9903310634 0.9657151450  
H 10.9311333854 18.4862961692 9.4563000000   0 0 0
H 10.1134936413 18.0174096813 8.1351000000   0 0 0
H 15.1470369570 21.3249303431 -0.6339333100  
H 14.3238404654 21.5701838269 0.7204533850  
H 15.2798814213 21.0270171430 6.5736000000   0 0 0
H 11.7756365724 13.9923692159 7.8894000000   0 0 0
H 10.9250622134 20.7963051730 -0.6052420350  
H 10.8818602053 19.8813354325 0.7343999600  
H 10.9350455372 20.9928017104 6.5712000000   0 0 0
H 10.9342631069 20.0514271102 7.8948000000   0 0 0
H 13.0429323853 22.2423631423 2.3415729100  
H 12.2414962736 21.7160870755 1.0258868000  
H 13.0929885173 22.2472925394 9.4719000000   0 0 0
H 12.2909973808 21.7714279041 8.1408000000   0 0 0
H 7.9711623433 6.7470121943 0.9254571200  
H 7.9239807300 10.1518201933 0.8389753250  
H 13.1013344413 8.8089562750 7.9377000000   0 0 0
H 12.2826514568 10.2153906371 7.9473000000   0 0 0
H 12.9919835915 9.7525967202 -0.5636254650  
H 12.2112948157 10.3287285035 0.7332445650  
H 8.7515431649 8.1942039954 8.1396000000   0 0 0
H 7.9412061043 6.7837178058 8.1342000000   0 0 0
H 8.7349608284 8.1977966564 0.9811433200  
H 9.5248506828 10.1834384315 0.8138849600  
H 13.9346227930 6.7580562314 8.1303000000   0 0 0
H 12.3084716592 6.7762894553 8.1279000000   0 0 0
H 13.1237211124 8.2581879619 1.0708369400  
H 12.3255424226 6.8775382982 1.0676205250  
H 10.1142760717 6.4818566536 7.9224000000   0 0 0
H 10.9201793601 6.0122948611 6.5949000000   0 0 0
H 10.0870110281 6.5516277936 0.7409658400  
H 11.0240878512 6.1237540865 -0.5099424950  
H 10.9300901449 11.0244055374 9.4860000000   0 0 0
H 10.9566927777 13.5077256209 6.5760000000   0 0 0
H 11.8553871630 14.0452630761 0.7171121550  
H 10.8552658532 13.7892724653 -0.5354511350  
H 16.1170819248 13.9705343675 7.9002000000   0 0 0
H 15.3114394465 13.5151539714 6.5631000000   0 0 0
H 16.2714641989 14.0954396276 0.8176627800  
H 15.6270599338 13.8261647018 -0.6146831800  
H 10.9478252334 11.9646546299 8.1564000000   0 0 0
H 11.7631176864 13.9450978945 11.6373000000   0 0 0
H 10.9338640726 12.0084380256 0.9869691700  
H 10.9525700738 11.0676253936 2.3218824200  
H 15.2717963074 11.9495728274 8.1060000000   0 0 0
H 14.4549389937 10.5447141761 8.1198000000   0 0 0
H 15.3121057956 12.0520199374 0.9004553550  
H 14.4268103583 10.7041018167 0.9230023700  
H 19.6239889723 20.0590407485 4.5482391050  
H 7.9568547118 10.2363250794 7.9269000000   0 0 0
H 21.7949183614 8.8089562750 7.9377000000   0 0 0
H 19.6802765181 10.9651510958 2.3986931100  
H 23.9653802275 11.9495728274 8.1060000000   0 0 0
H 23.1485229138 10.5447141761 8.1198000000   0 0 0
H 23.9649643162 11.8911556622 0.9216335500  
H 23.1157035900 10.5116879863 0.9226658750  
H 18.2750249049 10.2435283284 7.9404000000   0 0 0
H 16.6504386319 10.2363250794 7.9269000000   0 0 0
H 18.2512902889 10.1782567991 0.8503882800  
H 16.6546889085 10.2059868608 0.8335336000  
H 19.6857773896 11.9091653694 1.1015185600  
H 20.9764961869 10.2153906371 7.9473000000   0 0 0
H 21.8575932671 8.8245074030 0.6403431650  
H 21.0447336302 10.1829231223 0.7059426300  
H 17.4453878950 8.1942039954 8.1396000000   0 0 0
H 16.6347900244 6.7837178058 8.1342000000   0 0 0
H 17.4661181558 8.1938827148 1.0560149050  
H 16.6740185119 6.7446797283 1.0568218600  
H 22.6282067130 6.7580562314 8.1303000000   0 0 0
H 19.6505375079 13.5077256209 6.5760000000   0 0 0
H 17.4785107810 14.7430828199 9.4719000000   0 0 0
H 18.3503536790 14.3120589272 1.1243548500  
H 17.5374545736 14.7753933465 2.4586005550  
H 21.8290844879 15.7152963297 8.1177000000   0 0 0
H 22.6409864092 14.3081866631 8.0961000000   0 0 0
H 21.8236443590 15.7373493578 0.8976525600  
H 22.6619291024 14.3372791968 0.8933628400  
H 20.4694813026 13.9923692159 7.8894000000   0 0 0
H 21.0020555793 6.7762894553 8.1279000000   0 0 0
H 20.5654171932 14.0147214625 0.7178869950  
H 19.6553776378 13.4116682317 -0.4877076600  
H 24.8109266550 13.9705343675 7.9002000000   0 0 0
H 24.0052841767 13.5151539714 6.5631000000   0 0 0
H 15.2394399816 11.0539525488 2.9799546850  
H 24.1952719779 13.6401509424 -0.6607078100  
H 19.6416699636 11.9646546299 8.1564000000   0 0 0
H 19.6239348750 11.0244055374 9.4860000000   0 0 0
H 17.4693824266 22.2621492404 10.1208000000   0 0 0
H 18.3068437402 2.7033023640 7.9377000000   0 0 0
H 17.4965066797 1.2914655652 7.9362000000   0 0 0
H 18.2722173621 2.7235128798 0.7078709000  
H 17.4973690823 1.3399008641 0.7107272650  
H 22.6451593712 2.6895711706 7.9287000000   0 0 0
H 21.8129142601 1.2977684081 7.9254000000   0 0 0
H 22.6146282311 2.7144943648 0.7444712200  
H 21.7521052134 1.3849111397 0.7207876600  
H 17.4847702240 0.6899942759 11.4498000000   0 0 0
H 24.0514783263 3.4963611944 2.3593334000  
H 17.4802191004 0.7044003777 4.3398496950  
H 17.4627914183 22.2548705306 3.0213537100  
H 21.7996129437 0.6924703928 11.4654000000   0 0 0
H 20.9811907692 21.7934878541 11.4624000000   0 0 0
H 21.7938415859 0.6932529785 4.3433802150  
H 20.9739615950 21.7991391900 4.3488070350  
H 19.6377578117 20.0500765010 11.6514000000   0 0 0
H 18.8175099664 21.4547100508 11.6532000000   0 0 0
H 24.0213105573 4.8959869397 0.7649929000  
H 22.5793700796 6.6693682791 0.9425100900  
H 20.9798572209 6.7743684636 0.8983352500  
H 18.8081208018 6.4818566536 7.9224000000   0 0 0
H 19.6137632801 6.0122948611 6.5949000000   0 0 0
H 18.7060702543 6.5619988851 0.7190874800  
H 19.4035595098 6.0741291328 -0.6565255600  
H 23.9922436704 5.0369299298 7.9035000000   0 0 0
H 23.9859842274 5.9888843019 6.5847000000   0 0 0
H 24.9245835792 13.9885951907 0.7214584050  
H 23.9828816354 5.7547302414 -0.6001679100  
H 19.6513199382 4.4507655446 8.1306000000   0 0 0
H 20.4760015557 3.0477077055 8.1261000000   0 0 0
H 19.6340827988 4.4685581413 0.9674965650  
H 20.4929012903 3.0964391705 0.9757668900  
H 24.8250104018 3.0049384147 8.1453000000   0 0 0
H 24.0125868602 3.4767512225 9.4653000000   0 0 0
H 24.8906655770 3.0129074591 1.0325247900  
H 11.0184173357 3.4883147894 2.9804096800  
H 10.9344934648 5.0500031964 4.5621451500  
H 10.1156846576 6.4514176323 4.5591759600  
H 16.0896968616 6.4870339888 11.6661000000   0 0 0
H 14.4625024874 6.4582209929 11.6649000000   0 0 0
H 18.2922383732 14.2809493779 8.1429000000   0 0 0
H 14.4907190133 6.4759619355 4.5969445600  
H 11.7949365217 3.0342016137 11.4414000000   0 0 0
H 10.9746886764 3.4895820097 10.1148000000   0 0 0
H 11.8003229132 3.0327074910 4.3272193450  
H 10.1017571856 6.4595716020 11.6583000000   0 0 0
H 15.3244799528 4.4338829298 11.4501000000   0 0 0
H 16.1486399501 3.0330761060 11.4669000000   0 0 0
H 15.3138494886 4.4213752173 4.3426177900  
H 16.1305175506 3.0303773435 4.3653462000  
H 9.6283868075 2.7075792931 11.6832000000   0 0 0
H 8.8125727343 2.2483721710 13.0137000000   0 0 0
H 9.6391882328 2.7251710114 4.5830457100  
H 8.8342992871 2.2573042132 5.9238835700  
H 8.7465877725 8.2045586658 11.4576000000   0 0 0
H 7.9075615981 10.2252951044 11.6760000000   0 0 0
H 8.7283310637 9.7753171451 13.0095000000   0 0 0
H 7.9413328293 10.2277520043 4.5912736100  
H 8.7707931951 9.7738797795 5.9109848500  
H 13.0901196059 8.7830695990 11.6727000000   0 0 0
H 13.1018560616 9.7172409502 12.9990000000   0 0 0
H 13.1059819343 8.8157518966 4.6198376500  
H 13.1045671933 9.7689118180 5.9267913050  
H 16.1119604277 6.4820718259 4.5749366400  
H 8.7525864054 7.2735387360 10.1274000000   0 0 0
H 8.7742119229 8.2142928304 4.3043105900  
H 8.7581314164 7.2658669450 2.9810214850  
H 12.2706541910 6.7567056222 11.4393000000   0 0 0
H 13.0989871502 7.2235661963 10.1214000000   0 0 0
H 12.2855715547 6.7774200705 4.3773021550  
H 13.1116395580 7.2745071138 3.0725363050  
H 10.9173104487 5.0504360216 11.6628000000   0 0 0
H 23.9480273640 18.5600910013 2.3022833200  
H 23.0206959929 21.5575767658 0.7382212800  
H 23.8067020560 21.2199097868 -0.6192738550  
H 18.8073383715 18.0174096813 8.1351000000   0 0 0
H 19.6249781155 18.4862961692 9.4563000000   0 0 0
H 18.7330664079 17.9901413996 0.9331572750  
H 19.5697795485 18.4564779239 2.2767811650  
H 23.9906788097 19.4598602882 8.1324000000   0 0 0
H 23.9836369363 18.5288403584 9.4638000000   0 0 0
H 23.9145280638 19.4581649338 0.9632266900  
H 13.1503667450 2.2639041766 13.0032000000   0 0 0
H 17.4487784267 16.3003352073 7.9203000000   0 0 0
H 16.6423535180 17.7117218030 7.9236000000   0 0 0
H 17.4717883166 16.3640577634 0.7219701800  
H 16.6591291226 17.7284049373 0.6592125950  
H 22.6269026624 17.7612441397 7.9200000000   0 0 0
H 20.9976218071 17.7461623372 7.9152000000   0 0 0
H 22.5683703056 17.6785591050 0.6925035800  
H 20.9743420700 17.6399795119 0.6799936800  
H 13.9740051219 2.7215355879 11.6802000000   0 0 0
H 23.9734653414 21.0270171430 6.5736000000   0 0 0
H 19.6286294573 20.9928017104 6.5712000000   0 0 0
H 19.6281078371 20.0514271102 7.8948000000   0 0 0
H 19.5973383087 19.8734706372 0.7167318800  
H 21.7362849302 22.2284126032 2.3551541300  
H 20.9400493855 21.7159344386 1.0299639750  
H 19.6444346813 20.8063539349 -0.6068999650  
H 23.1571296479 21.4772202038 7.9047000000   0 0 0
H 21.7865724374 22.2472925394 9.4719000000   0 0 0
H 20.9848421110 21.7714279041 8.1408000000   0 0 0
H 16.6243925940 21.7752687147 0.9933459700  
H 18.2243854476 21.6660895540 0.9727636450  
H 16.6501778218 21.7766052393 8.1291000000   0 0 0
H 18.2771113859 21.7570214061 8.1264000000   0 0 0
H 13.1503945134 2.2460872712 5.9137309850  
H 13.9730105121 2.7145663072 4.5920353600  
C 12.4635662604 17.7997571477 -2.5464792400  
C 13.8701237864 17.7937868856 -2.5359382050  
C 15.9018546124 10.1172708271 -2.5615615050  
C 15.9040755228 12.3499209010 -2.6564860850  
C 17.2995483002 10.5344192634 -2.5440596400  
C 17.2987784696 11.9392612234 -2.6127473050  
C 6.5982305400 11.9928579248 -2.5697600300  
C 18.4922575603 9.8180086588 -2.4411026250  
C 18.4897244315 12.6703332512 -2.6280582500  